(set-info :smt-lib-version 2.6)
(set-logic QF_NIA)
(set-info :source |AProve team, see http://aprove.informatik.rwth-aachen.de/, submitted for SMT-COMP 2014|)
(set-info :category "industrial")
(set-info :status sat)
(declare-fun a__4 () Int)
(declare-fun a__2 () Int)
(declare-fun a__8 () Int)
(declare-fun a__11 () Int)
(declare-fun a__15 () Int)
(declare-fun a__19 () Int)
(declare-fun a__23 () Int)
(declare-fun a__26 () Int)
(declare-fun a__28 () Int)
(declare-fun a__31 () Int)
(declare-fun a__34 () Int)
(declare-fun a__38 () Int)
(declare-fun a__42 () Int)
(declare-fun a__46 () Int)
(declare-fun a__49 () Int)
(declare-fun a__51 () Int)
(declare-fun a__53 () Int)
(declare-fun a__55 () Int)
(declare-fun a__58 () Int)
(declare-fun a__60 () Int)
(declare-fun a__65 () Int)
(declare-fun a__70 () Int)
(declare-fun a__75 () Int)
(declare-fun a__80 () Int)
(declare-fun a__85 () Int)
(declare-fun a__90 () Int)
(declare-fun a__91 () Int)
(declare-fun a__93 () Int)
(declare-fun a__96 () Int)
(declare-fun a__99 () Int)
(declare-fun a__101 () Int)
(declare-fun a__104 () Int)
(declare-fun a__107 () Int)
(declare-fun a__109 () Int)
(declare-fun a__113 () Int)
(declare-fun a__117 () Int)
(declare-fun a__121 () Int)
(declare-fun a__125 () Int)
(declare-fun a__128 () Int)
(declare-fun a__130 () Int)
(declare-fun a__133 () Int)
(declare-fun a__135 () Int)
(declare-fun a__138 () Int)
(declare-fun a__140 () Int)
(declare-fun a__142 () Int)
(declare-fun a__144 () Int)
(declare-fun a__148 () Int)
(declare-fun a__152 () Int)
(declare-fun a__156 () Int)
(declare-fun a__160 () Int)
(declare-fun a__163 () Int)
(declare-fun a__3 () Int)
(declare-fun a__7 () Int)
(declare-fun a__10 () Int)
(declare-fun a__14 () Int)
(declare-fun a__18 () Int)
(declare-fun a__22 () Int)
(declare-fun a__25 () Int)
(declare-fun a__27 () Int)
(declare-fun a__30 () Int)
(declare-fun a__33 () Int)
(declare-fun a__37 () Int)
(declare-fun a__41 () Int)
(declare-fun a__45 () Int)
(declare-fun a__48 () Int)
(declare-fun a__50 () Int)
(declare-fun a__52 () Int)
(declare-fun a__54 () Int)
(declare-fun a__57 () Int)
(declare-fun a__59 () Int)
(declare-fun a__64 () Int)
(declare-fun a__69 () Int)
(declare-fun a__74 () Int)
(declare-fun a__79 () Int)
(declare-fun a__84 () Int)
(declare-fun a__89 () Int)
(declare-fun a__92 () Int)
(declare-fun a__95 () Int)
(declare-fun a__98 () Int)
(declare-fun a__100 () Int)
(declare-fun a__103 () Int)
(declare-fun a__106 () Int)
(declare-fun a__108 () Int)
(declare-fun a__112 () Int)
(declare-fun a__116 () Int)
(declare-fun a__120 () Int)
(declare-fun a__124 () Int)
(declare-fun a__127 () Int)
(declare-fun a__129 () Int)
(declare-fun a__132 () Int)
(declare-fun a__134 () Int)
(declare-fun a__137 () Int)
(declare-fun a__139 () Int)
(declare-fun a__141 () Int)
(declare-fun a__143 () Int)
(declare-fun a__147 () Int)
(declare-fun a__151 () Int)
(declare-fun a__155 () Int)
(declare-fun a__159 () Int)
(declare-fun a__162 () Int)
(assert (and (>= (+ (* a__4 a__2) (* (- 0 1) a__2)) 0) (>= (+ (* a__8 a__2) (* (- 0 1) a__2)) 0) (>= (+ (* a__11 a__2) (* (- 0 1) a__2)) 0) (>= (+ (* a__15 a__2) (* (- 0 1) a__2)) 0) (>= (+ (* a__19 a__2) (* (- 0 1) a__2)) 0) (>= (+ (* a__23 a__2) (* (- 0 1) a__2)) 0) (>= (+ (* a__26 a__2) (* (- 0 1) a__2)) 0) (>= (+ (* a__28 a__2) (* (- 0 1) a__2)) 0) (>= (+ (* a__31 a__2) (* (- 0 1) a__2)) 0) (>= (+ (* a__34 a__2) (* (- 0 1) a__2)) 0) (>= (+ (* a__38 a__2) (* (- 0 1) a__2)) 0) (>= (+ (* a__42 a__2) (* (- 0 1) a__2)) 0) (>= (+ (* a__46 a__2) (* (- 0 1) a__2)) 0) (>= (+ (* a__49 a__2) (* (- 0 1) a__2)) 0) (>= (+ (* a__51 a__2) (* (- 0 1) a__2)) 0) (>= (+ (* a__53 a__2) (* (- 0 1) a__2)) 0) (>= (+ (* a__55 a__2) (* (- 0 1) a__2)) 0) (>= (+ (* a__58 a__2) (* (- 0 1) a__2)) 0) (>= (+ (* a__60 a__2) (* (- 0 1) a__2)) 0) (>= (+ (* a__65 a__2) (* (- 0 1) a__2)) 0) (>= (+ (* a__70 a__2) (* (- 0 1) a__2)) 0) (>= (+ (* a__75 a__2) (* (- 0 1) a__2)) 0) (>= (+ (* a__80 a__2) (* (- 0 1) a__2)) 0) (>= (+ (* a__85 a__2) (* (- 0 1) a__2)) 0) (>= (+ (* a__90 a__2) (* (- 0 1) a__2)) 0) (>= (+ (* a__91 a__2) (* (- 0 1) a__2)) 0) (>= (+ (* a__93 a__2) (* (- 0 1) a__2)) 0) (>= (+ (* a__96 a__2) (* (- 0 1) a__2)) 0) (>= (+ (* a__99 a__2) (* (- 0 1) a__2)) 0) (>= (+ (* a__101 a__2) (* (- 0 1) a__2)) 0) (>= (+ (* a__104 a__2) (* (- 0 1) a__2)) 0) (>= (+ (* a__107 a__2) (* (- 0 1) a__2)) 0) (>= (+ (* a__109 a__2) (* (- 0 1) a__2)) 0) (>= (+ (* a__113 a__2) (* (- 0 1) a__2)) 0) (>= (+ (* a__117 a__2) (* (- 0 1) a__2)) 0) (>= (+ (* a__121 a__2) (* (- 0 1) a__2)) 0) (>= (+ (* a__125 a__2) (* (- 0 1) a__2)) 0) (>= (+ (* a__128 a__2) (* (- 0 1) a__2)) 0) (>= (+ (* a__130 a__2) (* (- 0 1) a__2)) 0) (>= (+ (* a__133 a__2) (* (- 0 1) a__2)) 0) (>= (+ (* a__135 a__2) (* (- 0 1) a__2)) 0) (>= (+ (* a__138 a__2) (* (- 0 1) a__2)) 0) (>= (+ (* a__140 a__2) (* (- 0 1) a__2)) 0) (>= (+ (* a__142 a__2) (* (- 0 1) a__2)) 0) (>= (+ (* a__144 a__2) (* (- 0 1) a__2)) 0) (>= (+ (* a__148 a__2) (* (- 0 1) a__2)) 0) (>= (+ (* a__152 a__2) (* (- 0 1) a__2)) 0) (>= (+ (* a__156 a__2) (* (- 0 1) a__2)) 0) (>= (+ (* a__160 a__2) (* (- 0 1) a__2)) 0) (>= (+ (* a__163 a__2) (* (- 0 1) a__2)) 0) (>= (* a__3 a__2) 0) (>= (* a__7 a__2) 0) (>= (* a__10 a__2) 0) (>= (* a__14 a__2) 0) (>= (* a__18 a__2) 0) (>= (* a__22 a__2) 0) (>= (* a__25 a__2) 0) (>= (* a__27 a__2) 0) (>= (* a__30 a__2) 0) (>= (* a__33 a__2) 0) (>= (* a__37 a__2) 0) (>= (* a__41 a__2) 0) (>= (* a__45 a__2) 0) (>= (* a__48 a__2) 0) (>= (* a__50 a__2) 0) (>= (* a__52 a__2) 0) (>= (* a__54 a__2) 0) (>= (* a__57 a__2) 0) (>= (* a__59 a__2) 0) (>= (* a__64 a__2) 0) (>= (* a__69 a__2) 0) (>= (* a__74 a__2) 0) (>= (* a__79 a__2) 0) (>= (* a__84 a__2) 0) (>= (* a__89 a__2) 0) (>= (* a__92 a__2) 0) (>= (* a__95 a__2) 0) (>= (* a__98 a__2) 0) (>= (* a__100 a__2) 0) (>= (* a__103 a__2) 0) (>= (* a__106 a__2) 0) (>= (* a__108 a__2) 0) (>= (* a__112 a__2) 0) (>= (* a__116 a__2) 0) (>= (* a__120 a__2) 0) (>= (* a__124 a__2) 0) (>= (* a__127 a__2) 0) (>= (* a__129 a__2) 0) (>= (* a__132 a__2) 0) (>= (* a__134 a__2) 0) (>= (* a__137 a__2) 0) (>= (* a__139 a__2) 0) (>= (* a__141 a__2) 0) (>= (* a__143 a__2) 0) (>= (* a__147 a__2) 0) (>= (* a__151 a__2) 0) (>= (* a__155 a__2) 0) (>= (* a__159 a__2) 0) (>= (* a__162 a__2) 0) (not (and (= (* a__3 a__2) 0) (= (* a__7 a__2) 0) (= (* a__10 a__2) 0) (= (* a__14 a__2) 0) (= (* a__18 a__2) 0) (= (* a__22 a__2) 0) (= (* a__25 a__2) 0) (= (* a__27 a__2) 0) (= (* a__30 a__2) 0) (= (* a__33 a__2) 0) (= (* a__37 a__2) 0) (= (* a__41 a__2) 0) (= (* a__45 a__2) 0) (= (* a__48 a__2) 0) (= (* a__50 a__2) 0) (= (* a__52 a__2) 0) (= (* a__54 a__2) 0) (= (* a__57 a__2) 0) (= (* a__59 a__2) 0) (= (* a__64 a__2) 0) (= (* a__69 a__2) 0) (= (* a__74 a__2) 0) (= (* a__79 a__2) 0) (= (* a__84 a__2) 0) (= (* a__89 a__2) 0) (= (* a__92 a__2) 0) (= (* a__95 a__2) 0) (= (* a__98 a__2) 0) (= (* a__100 a__2) 0) (= (* a__103 a__2) 0) (= (* a__106 a__2) 0) (= (* a__108 a__2) 0) (= (* a__112 a__2) 0) (= (* a__116 a__2) 0) (= (* a__120 a__2) 0) (= (* a__124 a__2) 0) (= (* a__127 a__2) 0) (= (* a__129 a__2) 0) (= (* a__132 a__2) 0) (= (* a__134 a__2) 0) (= (* a__137 a__2) 0) (= (* a__139 a__2) 0) (= (* a__141 a__2) 0) (= (* a__143 a__2) 0) (= (* a__147 a__2) 0) (= (* a__151 a__2) 0) (= (* a__155 a__2) 0) (= (* a__159 a__2) 0) (= (* a__162 a__2) 0))) (>= a__4 0) (>= a__2 0) (>= a__8 0) (>= a__11 0) (>= a__15 0) (>= a__19 0) (>= a__23 0) (>= a__26 0) (>= a__28 0) (>= a__31 0) (>= a__34 0) (>= a__38 0) (>= a__42 0) (>= a__46 0) (>= a__49 0) (>= a__51 0) (>= a__53 0) (>= a__55 0) (>= a__58 0) (>= a__60 0) (>= a__65 0) (>= a__70 0) (>= a__75 0) (>= a__80 0) (>= a__85 0) (>= a__90 0) (>= a__91 0) (>= a__93 0) (>= a__96 0) (>= a__99 0) (>= a__101 0) (>= a__104 0) (>= a__107 0) (>= a__109 0) (>= a__113 0) (>= a__117 0) (>= a__121 0) (>= a__125 0) (>= a__128 0) (>= a__130 0) (>= a__133 0) (>= a__135 0) (>= a__138 0) (>= a__140 0) (>= a__142 0) (>= a__144 0) (>= a__148 0) (>= a__152 0) (>= a__156 0) (>= a__160 0) (>= a__163 0) (>= a__3 0) (>= a__7 0) (>= a__10 0) (>= a__14 0) (>= a__18 0) (>= a__22 0) (>= a__25 0) (>= a__27 0) (>= a__30 0) (>= a__33 0) (>= a__37 0) (>= a__41 0) (>= a__45 0) (>= a__48 0) (>= a__50 0) (>= a__52 0) (>= a__54 0) (>= a__57 0) (>= a__59 0) (>= a__64 0) (>= a__69 0) (>= a__74 0) (>= a__79 0) (>= a__84 0) (>= a__89 0) (>= a__92 0) (>= a__95 0) (>= a__98 0) (>= a__100 0) (>= a__103 0) (>= a__106 0) (>= a__108 0) (>= a__112 0) (>= a__116 0) (>= a__120 0) (>= a__124 0) (>= a__127 0) (>= a__129 0) (>= a__132 0) (>= a__134 0) (>= a__137 0) (>= a__139 0) (>= a__141 0) (>= a__143 0) (>= a__147 0) (>= a__151 0) (>= a__155 0) (>= a__159 0) (>= a__162 0)))
(check-sat)
;;(get-assignment)
;;(get-model)
(exit)
